NAME : rand100.3031947_9092102.tour
COMMENT : Cost = 3031947_9092102
COMMENT : Found by LKH-3 [Keld Helsgaun] Tue Mar 15 23:34:22 2022
TYPE : TOUR
DIMENSION : 102
TOUR_SECTION
1
13
3
99
53
47
94
98
66
76
58
89
2
23
84
88
31
16
45
57
36
64
91
101
15
63
86
97
67
49
21
75
82
4
32
78
33
10
79
6
95
59
77
93
28
37
19
56
46
50
73
54
38
70
72
17
92
27
20
74
26
9
12
85
14
87
62
18
102
71
68
83
48
30
22
41
34
7
42
24
25
43
40
55
39
96
29
35
44
100
52
11
61
5
81
80
65
51
90
69
8
60
-1
EOF
